data/solutions/planning/wellformed/moderate/sequential/wellformed_moderate_instance87_cplex.sol
Elapsed time: 0.74
Nodes explored: -
Nodes left: -
Relative gap: -
Upper bound: 51267.0
Lower bound: -
C[0]=814.0
C[1]=814.0
C[2]=813.0
C[3]=813.0
C[4]=813.0
C[5]=813.0
y[0]=2
y[1]=1
y[2]=3
y[3]=1
y[4]=1
y[5]=4
y[6]=3
y[7]=0
y[8]=0
y[9]=4
y[10]=0
y[11]=4
y[12]=5
y[13]=5
y[14]=2
y[15]=5
y[16]=3
y[17]=2
y[18]=2
y[19]=1
y[20]=3
y[21]=5
y[22]=2
y[23]=0
y[24]=4
y[25]=4
y[26]=1
y[27]=3
y[28]=5
y[29]=3
y[30]=3
y[31]=5
y[32]=0
y[33]=2
y[34]=3
y[35]=0
y[36]=5
y[37]=1
y[38]=2
y[39]=0
